NAME : XML100_1141_12
DIMENSION : 101
NB_CLUSTERS : 4
CLUSTERING_ALG : KMedoids
CLUSTERING_PARAMS : k(3)
CLUSTERS
1 0
2 3 4 5 7 10 12 13 21 22 23 25 30 35 36 37 41 44 46 47 50 52 53 57 63 65 73 75 76 78 88 89 90 91 94 97 100
3 1 8 14 16 24 28 31 39 40 49 51 61 67 68 69 71 72 74 77 79 81 85 87 93 95 98 99
4 2 6 9 11 15 17 18 19 20 26 27 29 32 33 34 38 42 43 45 48 54 55 56 58 59 60 62 64 66 70 80 82 83 84 86 92 96
EOF